3 3 2
25 1 44 0 36 1 6 2 9 0 39 1 49 0 2 1 38 0 1 2 32 1 44 0 36 2 33 1 32 0 6 2 24 0 41 2 42 0 8 2 6 0 35 1 10 0 15 2 34 1 31 
25 0 28 1 13 2 32 0 29 1 40 0 39 2 47 0 47 2 16 1 35 0 47 2 22 0 9 1 12 2 14 1 30 2 3 0 41 1 5 2 33 1 13 0 14 1 24 0 48 2 3 
25 1 13 0 28 1 3 2 46 0 45 1 19 2 23 0 21 2 19 0 11 1 42 2 35 1 0 2 36 1 24 0 34 2 20 0 43 1 44 2 27 0 31 1 33 0 19 1 48 2 25 

-------------
